
Gurobi 9.5.2 (mac64[arm]) logging started Wed Apr 19 14:53:51 2023

Set parameter LogFile to value "Java/output/pure_mip/scenario_seed_2_nJob_50_machineCount_1/mip_increment_1/log.txt"
Gurobi Optimizer version 9.5.2 build v9.5.2rc0 (mac64[arm])
Thread count: 8 physical cores, 8 logical processors, using up to 8 threads
Optimize a model with 2756 rows, 64480 columns and 738956 nonzeros
Model fingerprint: 0x61796e7c
Variable types: 0 continuous, 64480 integer (64480 binary)
Coefficient statistics:
  Matrix range     [1e+00, 4e+02]
  Objective range  [3e+00, 2e+07]
  Bounds range     [1e+00, 1e+00]
  RHS range        [1e+00, 1e+00]
Presolve removed 12 rows and 3405 columns
Presolve time: 0.73s
Presolved: 2744 rows, 61075 columns, 687202 nonzeros
Variable types: 0 continuous, 61075 integer (61037 binary)

Root simplex log...

Iteration    Objective       Primal Inf.    Dual Inf.      Time
   24993    2.5150528e+04   2.197550e+05   0.000000e+00      5s
   48747    2.6028004e+04   6.987845e+04   0.000000e+00     10s
   66224    2.6202209e+04   4.875454e+03   0.000000e+00     15s
   69638    2.6208046e+04   0.000000e+00   0.000000e+00     16s

Root relaxation: objective 2.620805e+04, 69638 iterations, 15.32 seconds (41.49 work units)

    Nodes    |    Current Node    |     Objective Bounds      |     Work
 Expl Unexpl |  Obj  Depth IntInf | Incumbent    BestBd   Gap | It/Node Time

     0     0 26208.0461    0  527          - 26208.0461      -     -   16s
     0     0 26265.0507    0  813          - 26265.0507      -     -   20s
     0     0 26265.7079    0  836          - 26265.7079      -     -   22s
     0     0 26266.2786    0  841          - 26266.2786      -     -   23s
     0     0 26266.2806    0  828          - 26266.2806      -     -   23s
     0     0 26310.1950    0  948          - 26310.1950      -     -   36s
     0     0 26328.8364    0  988          - 26328.8364      -     -   46s
     0     0 26330.8927    0 1002          - 26330.8927      -     -   75s
     0     0 26335.4947    0  991          - 26335.4947      -     -   85s
     0     0 26335.5027    0  981          - 26335.5027      -     -   85s
     0     0 26352.8653    0 1004          - 26352.8653      -     -   97s
     0     0 26357.1428    0 1083          - 26357.1428      -     -  105s
     0     0 26359.2623    0 1169          - 26359.2623      -     -  116s
     0     0 26365.5772    0 1194          - 26365.5772      -     -  130s
     0     0 26365.6371    0 1194          - 26365.6371      -     -  131s
     0     0 26365.6425    0 1188          - 26365.6425      -     -  131s
     0     0 26389.0734    0 1234          - 26389.0734      -     -  144s
     0     0 26397.4315    0 1247          - 26397.4315      -     -  155s
     0     0 26398.6873    0 1281          - 26398.6873      -     -  162s
     0     0 26398.8984    0 1279          - 26398.8984      -     -  164s
     0     0 26398.9308    0 1294          - 26398.9308      -     -  165s
     0     0 26408.2642    0 1321          - 26408.2642      -     -  182s
     0     0 26411.7051    0 1336          - 26411.7051      -     -  191s
     0     0 26413.3396    0 1336          - 26413.3396      -     -  197s
     0     0 26413.9323    0 1374          - 26413.9323      -     -  202s
     0     0 26413.9528    0 1354          - 26413.9528      -     -  203s
     0     0 26422.0994    0 1393          - 26422.0994      -     -  220s
     0     0 26423.4559    0 1439          - 26423.4559      -     -  227s
     0     0 26426.8437    0 1389          - 26426.8437      -     -  235s
     0     0 26427.0283    0 1421          - 26427.0283      -     -  240s
     0     0 26427.0410    0 1427          - 26427.0410      -     -  241s
     0     0 26431.4736    0 1407          - 26431.4736      -     -  250s
     0     0 26433.3253    0 1384          - 26433.3253      -     -  262s
     0     0 26433.4905    0 1426          - 26433.4905      -     -  265s
     0     0 26433.6843    0 1461          - 26433.6843      -     -  268s
     0     0 26433.7484    0 1460          - 26433.7484      -     -  270s
     0     0 26437.7132    0 1489          - 26437.7132      -     -  280s
     0     0 26438.5505    0 1476          - 26438.5505      -     -  285s
     0     0 26439.4506    0 1491          - 26439.4506      -     -  290s
     0     0 26439.5241    0 1503          - 26439.5241      -     -  292s
     0     0 26441.9448    0 1474          - 26441.9448      -     -  300s
     0     0 26442.6391    0 1503          - 26442.6391      -     -  307s
     0     0 26443.6603    0 1511          - 26443.6603      -     -  317s
     0     0 26444.3496    0 1521          - 26444.3496      -     -  325s
     0     0 26444.4664    0 1545          - 26444.4664      -     -  327s
     0     0 26446.0634    0 1511          - 26446.0634      -     -  335s
     0     0 26447.0571    0 1538          - 26447.0571      -     -  346s
     0     0 26447.4545    0 1574          - 26447.4545      -     -  350s
     0     0 26447.5076    0 1553          - 26447.5076      -     -  352s
     0     0 26450.3828    0 1551          - 26450.3828      -     -  362s
     0     0 26451.1872    0 1612          - 26451.1872      -     -  368s
     0     0 26451.3074    0 1637          - 26451.3074      -     -  371s
     0     0 26452.9347    0 1607          - 26452.9347      -     -  379s
     0     0 26455.6284    0 1538          - 26455.6284      -     -  392s
     0     0 26455.8751    0 1571          - 26455.8751      -     -  396s
     0     0 26455.9312    0 1609          - 26455.9312      -     -  399s
     0     0 26460.6230    0 1562          - 26460.6230      -     -  412s
     0     0 26460.7654    0 1604          - 26460.7654      -     -  415s
     0     0 26463.7765    0 1603          - 26463.7765      -     -  439s
     0     0 26465.3859    0 1655          - 26465.3859      -     -  448s
     0     0 26465.5208    0 1669          - 26465.5208      -     -  452s
     0     0 26468.8761    0 1633          - 26468.8761      -     -  463s
     0     0 26469.0413    0 1643          - 26469.0413      -     -  467s
     0     0 26470.7842    0 1647          - 26470.7842      -     -  476s
     0     0 26474.3258    0 1662          - 26474.3258      -     -  493s
     0     0 26474.6156    0 1730          - 26474.6156      -     -  498s
     0     0 26475.0525    0 1678          - 26475.0525      -     -  505s
     0     0 26475.1095    0 1711          - 26475.1095      -     -  506s
     0     0 26476.4810    0 1648          - 26476.4810      -     -  513s
     0     0 26476.6102    0 1684          - 26476.6102      -     -  517s
     0     0 26477.3045    0 1686          - 26477.3045      -     -  525s
H    0     0                    1.382017e+08 26477.3045   100%     -  525s
     0     0 26477.3045    0 1656 1.3820e+08 26477.3045   100%     -  527s
H    0     0                    6.199677e+07 26477.3045   100%     -  597s

Cutting planes:
  Clique: 368
  MIR: 77
  StrongCG: 29
  GUB cover: 364
  Zero half: 2

Explored 1 nodes (793655 simplex iterations) in 600.01 seconds (1699.06 work units)
Thread count was 8 (of 8 available processors)

Solution count 2: 6.19968e+07 1.38202e+08 

Time limit reached
Best objective 6.199677300000e+07, best bound 2.647730453625e+04, gap 99.9573%
